c A SAT instance generated from a 3-CNF formula that had 30 clauses and 10 variables
p cnf 10 30
-9 -4 8 0
-3 8 10 0
-10 3 -7 0
-8 -9 4 0
10 3 -4 0
9 8 10 0
-1 6 4 0
4 9 2 0
-10 -8 -5 0
1 -2 -6 0
-4 -8 1 0
6 10 5 0
-2 -1 8 0
-9 -4 -7 0
5 3 6 0
1 2 -6 0
-1 5 7 0
7 -5 3 0
-8 -5 -3 0
10 -3 8 0
-6 1 2 0
4 5 10 0
-9 6 -1 0
-9 -7 6 0
6 -5 -7 0
3 10 4 0
-3 -8 -4 0
5 3 10 0
-1 10 5 0
-6 -3 -5 0
